letting n_hints be 31

letting grid be [
[ 1, 2, 2,  3, 3, 3,  4, 4, 4],
[ 1, 2, 5,  5, 5, 6,  7, 8, 8],
[ 1, 9,10, 10,10, 6,  7,11,11],

[ 1, 9, 9, 10,12, 6, 13,13,14],
[15,15,15, 12,12,16, 16,17,14],
[18,18,19, 19,20,21, 21,17,22],

[18,23,23, 24,20,21, 25,25,25],
[26,26,23, 27,28,29, 29,30,25],
[26,31,31, 27,28,29, 29,30,30]
]

letting hints be [18,22,15,10,17, 12,10,8,15,15, 17,10,13,9,22, 7,11,12,13,8, 19,2,15,1,21, 15,10,17,22,11, 8]